p cnf 115 138
-1 8 24 28 43 51 111 -112 -113 -114 -115 0 
-2 21 40 62 65 69 96 99 101 102 111 -112 -113 -114 -115 0 
-3 -4 91 111 -112 -113 -114 -115 0 
-5 36 42 53 79 83 84 88 94 107 110 111 -112 -113 -114 -115 0 
-6 48 71 97 111 -112 -113 -114 -115 0 
-7 61 111 -112 -113 -114 -115 0 
-8 1 24 28 43 51 111 -112 -113 -114 -115 0 
-9 111 -112 -113 -114 -115 0 
-10 17 57 92 -11 15 -12 111 -112 -113 -114 -115 0 
-13 80 -14 47 72 98 103 105 -15 11 -16 112 -111 -113 -114 -115 0 
-13 80 111 -112 -113 -114 -115 0 
-17 10 57 92 111 -112 -113 -114 -115 0 
-18 19 20 52 55 63 64 111 -112 -113 -114 -115 0 
-19 18 20 52 55 63 64 111 -112 -113 -114 -115 0 
-20 18 19 52 55 63 64 111 -112 -113 -114 -115 0 
-21 2 40 62 65 69 96 99 101 102 -22 111 -112 -113 -114 -115 0 
-23 74 78 113 -111 -112 -114 -115 0 
-24 1 8 28 43 51 -25 112 -111 -113 -114 -115 0 
-26 34 39 56 70 89 -27 111 -112 -113 -114 -115 0 
-28 1 8 24 43 51 114 -111 -112 -113 -115 0 
-12 111 -112 -113 -114 -115 0 
-29 -12 111 -112 -113 -114 -115 0 
-30 31 32 33 35 49 54 59 73 112 -111 -113 -114 -115 0 
-31 30 32 33 35 49 54 59 73 112 -111 -113 -114 -115 0 
-32 30 31 33 35 49 54 59 73 112 -111 -113 -114 -115 0 
-33 30 31 32 35 49 54 59 73 112 -111 -113 -114 -115 0 
-34 26 39 56 70 89 112 -111 -113 -114 -115 0 
-35 30 31 32 33 49 54 59 73 112 -111 -113 -114 -115 0 
-36 5 42 53 79 83 84 88 94 107 110 112 -111 -113 -114 -115 0 
-37 111 -112 -113 -114 -115 0 
-13 80 -14 47 72 98 103 105 -38 -16 112 -111 -113 -114 -115 0 
-17 10 57 92 -39 26 34 56 70 89 -11 15 -16 112 -111 -113 -114 -115 0 
-40 2 21 62 65 69 96 99 101 102 -11 15 111 -112 -113 -114 -115 0 
-41 114 -111 -112 -113 -115 0 
-42 5 36 53 79 83 84 88 94 107 110 -11 15 111 -112 -113 -114 -115 0 
-13 80 -11 15 111 -112 -113 -114 -115 0 
-43 1 8 24 28 51 -11 15 111 -112 -113 -114 -115 0 
-11 15 -16 112 -111 -113 -114 -115 0 
-16 111 -112 -113 -114 -115 0 
-13 80 -44 112 -111 -113 -114 -115 0 
-13 80 -35 30 31 32 33 49 54 59 73 -16 112 -111 -113 -114 -115 0 
-45 -46 112 -111 -113 -114 -115 0 
-35 30 31 32 33 49 54 59 73 -12 111 -112 -113 -114 -115 0 
-23 74 78 -47 14 72 98 103 105 112 -111 -113 -114 -115 0 
-48 6 71 97 -49 30 31 32 33 35 54 59 73 112 -111 -113 -114 -115 0 
-50 114 -111 -112 -113 -115 0 
-51 1 8 24 28 43 111 -112 -113 -114 -115 0 
-52 18 19 20 55 63 64 -11 15 -16 112 -111 -113 -114 -115 0 
-53 5 36 42 79 83 84 88 94 107 110 112 -111 -113 -114 -115 0 
-54 30 31 32 33 35 49 59 73 112 -111 -113 -114 -115 0 
-29 111 -112 -113 -114 -115 0 
-51 1 8 24 28 43 112 -111 -113 -114 -115 0 
-55 18 19 20 52 63 64 111 -112 -113 -114 -115 0 
-16 112 -111 -113 -114 -115 0 
-56 26 34 39 70 89 111 -112 -113 -114 -115 0 
-57 10 17 92 112 -111 -113 -114 -115 0 
-58 113 -111 -112 -114 -115 0 
-59 30 31 32 33 35 49 54 73 112 -111 -113 -114 -115 0 
-60 114 -111 -112 -113 -115 0 
-29 -11 15 -16 111 -112 -113 -114 -115 0 
-3 -61 7 111 -112 -113 -114 -115 0 
-4 91 111 -112 -113 -114 -115 0 
-62 2 21 40 65 69 96 99 101 102 111 -112 -113 -114 -115 0 
-63 18 19 20 52 55 64 111 -112 -113 -114 -115 0 
-61 7 111 -112 -113 -114 -115 0 
-64 18 19 20 52 55 63 -25 111 -112 -113 -114 -115 0 
-65 2 21 40 62 69 96 99 101 102 111 -112 -113 -114 -115 0 
-66 112 -111 -113 -114 -115 0 
-67 112 -111 -113 -114 -115 0 
-68 114 -111 -112 -113 -115 0 
-69 2 21 40 62 65 96 99 101 102 114 -111 -112 -113 -115 0 
-70 26 34 39 56 89 112 -111 -113 -114 -115 0 
-71 6 48 97 112 -111 -113 -114 -115 0 
-72 14 47 98 103 105 111 -112 -113 -114 -115 0 
-73 30 31 32 33 35 49 54 59 111 -112 -113 -114 -115 0 
-74 23 78 114 -111 -112 -113 -115 0 
-75 77 112 -111 -113 -114 -115 0 
-76 112 -111 -113 -114 -115 0 
-17 10 57 92 113 -111 -112 -114 -115 0 
-77 75 112 -111 -113 -114 -115 0 
-52 18 19 20 55 63 64 112 -111 -113 -114 -115 0 
-78 23 74 111 -112 -113 -114 -115 0 
-79 5 36 42 53 83 84 88 94 107 110 111 -112 -113 -114 -115 0 
-80 13 111 -112 -113 -114 -115 0 
-52 18 19 20 55 63 64 -81 112 -111 -113 -114 -115 0 
-64 18 19 20 52 55 63 111 -112 -113 -114 -115 0 
-48 6 71 97 111 -112 -113 -114 -115 0 
-27 -12 111 -112 -113 -114 -115 0 
-17 10 57 92 -39 26 34 56 70 89 -38 112 -111 -113 -114 -115 0 
-40 2 21 62 65 69 96 99 101 102 -38 111 -112 -113 -114 -115 0 
-41 114 -111 -112 -113 -115 0 
-42 5 36 53 79 83 84 88 94 107 110 -38 111 -112 -113 -114 -115 0 
-43 1 8 24 28 51 -38 111 -112 -113 -114 -115 0 
-13 80 -38 111 -112 -113 -114 -115 0 
-38 112 -111 -113 -114 -115 0 
-13 80 -44 112 -111 -113 -114 -115 0 
-9 111 -112 -113 -114 -115 0 
-10 17 57 92 -38 111 -112 -113 -114 -115 0 
-52 18 19 20 55 63 64 -38 112 -111 -113 -114 -115 0 
-3 -7 61 111 -112 -113 -114 -115 0 
-82 115 -111 -112 -113 -114 0 
-17 10 57 92 -62 2 21 40 65 69 96 99 101 102 111 -112 -113 -114 -115 0 
-83 5 36 42 53 79 84 88 94 107 110 113 -111 -112 -114 -115 0 
-13 80 -84 5 36 42 53 79 83 88 94 107 110 111 -112 -113 -114 -115 0 
-85 113 -111 -112 -114 -115 0 
-86 115 -111 -112 -113 -114 0 
-87 111 -112 -113 -114 -115 0 
-88 5 36 42 53 79 83 84 94 107 110 111 -112 -113 -114 -115 0 
-89 26 34 39 56 70 111 -112 -113 -114 -115 0 
-90 93 111 -112 -113 -114 -115 0 
-91 4 111 -112 -113 -114 -115 0 
-92 10 17 57 111 -112 -113 -114 -115 0 
-10 17 57 92 111 -112 -113 -114 -115 0 
-93 90 111 -112 -113 -114 -115 0 
-29 -38 -16 111 -112 -113 -114 -115 0 
-64 18 19 20 52 55 63 -94 5 36 42 53 79 83 84 88 107 110 112 -111 -113 -114 -115 0 
-95 115 -111 -112 -113 -114 0 
-96 2 21 40 62 65 69 99 101 102 111 -112 -113 -114 -115 0 
-47 14 72 98 103 105 112 -111 -113 -114 -115 0 
-97 6 48 71 -64 18 19 20 52 55 63 111 -112 -113 -114 -115 0 
-98 14 47 72 103 105 112 -111 -113 -114 -115 0 
-99 2 21 40 62 65 69 96 101 102 111 -112 -113 -114 -115 0 
-100 -101 2 21 40 62 65 69 96 99 102 111 -112 -113 -114 -115 0 
-102 2 21 40 62 65 69 96 99 101 111 -112 -113 -114 -115 0 
-103 14 47 72 98 105 111 -112 -113 -114 -115 0 
-104 -21 2 40 62 65 69 96 99 101 102 111 -112 -113 -114 -115 0 
-100 -21 2 40 62 65 69 96 99 101 102 111 -112 -113 -114 -115 0 
-81 111 -112 -113 -114 -115 0 
-7 61 -22 111 -112 -113 -114 -115 0 
-105 14 47 72 98 103 111 -112 -113 -114 -115 0 
-106 112 -111 -113 -114 -115 0 
-25 112 -111 -113 -114 -115 0 
-107 5 36 42 53 79 83 84 88 94 110 111 -112 -113 -114 -115 0 
-108 -40 2 21 62 65 69 96 99 101 102 111 -112 -113 -114 -115 0 
-109 -99 2 21 40 62 65 69 96 101 102 111 -112 -113 -114 -115 0 
-104 -101 2 21 40 62 65 69 96 99 102 111 -112 -113 -114 -115 0 
-110 5 36 42 53 79 83 84 88 94 107 111 -112 -113 -114 -115 0 
-13 80 -21 2 40 62 65 69 96 99 101 102 111 -112 -113 -114 -115 0 
